# Solution for model weathering_srl_ilp
# Objective value = 2.2684680346433556e+01
Z_565_0_0 0
Z_565_0_1 0
Z_565_0_2 0
Z_565_0_3 1
Z_565_0_4 0
Z_742_0_0 0
Z_742_0_1 0
Z_742_0_2 1
Z_742_0_3 0
Z_742_0_4 0
Z_207_1_0 0
Z_207_1_1 0
Z_207_1_2 1
Z_207_1_3 0
Z_207_1_4 0
Z_207_0_0 0
Z_207_0_1 0
Z_207_0_2 0
Z_207_0_3 1
Z_207_0_4 0
Z_415_0_0 0
Z_415_0_1 0
Z_415_0_2 0
Z_415_0_3 0
Z_415_0_4 1
Z_171_0_0 1
Z_171_0_1 0
Z_171_0_2 0
Z_171_0_3 0
Z_171_0_4 0
Z_178_0_0 0
Z_178_0_1 0
Z_178_0_2 0
Z_178_0_3 0
Z_178_0_4 1
Z_257_9_0 0
Z_257_9_1 0
Z_257_9_2 0
Z_257_9_3 0
Z_257_9_4 1
Z_257_0_0 0
Z_257_0_1 0
Z_257_0_2 1
Z_257_0_3 0
Z_257_0_4 0
Z_257_2_0 1
Z_257_2_1 0
Z_257_2_2 0
Z_257_2_3 0
Z_257_2_4 0
Z_257_1_0 0
Z_257_1_1 0
Z_257_1_2 0
Z_257_1_3 1
Z_257_1_4 0
Z_641_0_0 0
Z_641_0_1 0
Z_641_0_2 0
Z_641_0_3 1
Z_641_0_4 0
Z_176_0_0 0
Z_176_0_1 0
Z_176_0_2 0
Z_176_0_3 1
Z_176_0_4 0
Z_176_1_0 0
Z_176_1_1 0
Z_176_1_2 1
Z_176_1_3 0
Z_176_1_4 0
Z_419_0_0 1
Z_419_0_1 0
Z_419_0_2 0
Z_419_0_3 0
Z_419_0_4 0
Z_468_0_0 1
Z_468_0_1 0
Z_468_0_2 0
Z_468_0_3 0
Z_468_0_4 0
Z_468_1_0 0
Z_468_1_1 0
Z_468_1_2 1
Z_468_1_3 0
Z_468_1_4 0
Z_477_0_0 1
Z_477_0_1 0
Z_477_0_2 0
Z_477_0_3 0
Z_477_0_4 0
Z_477_1_0 0
Z_477_1_1 0
Z_477_1_2 0
Z_477_1_3 0
Z_477_1_4 1
Z_658_0_0 0
Z_658_0_1 1
Z_658_0_2 0
Z_658_0_3 0
Z_658_0_4 0
Z_114_0_0 1
Z_114_0_1 0
Z_114_0_2 0
Z_114_0_3 0
Z_114_0_4 0
Z_114_1_0 0
Z_114_1_1 0
Z_114_1_2 1
Z_114_1_3 0
Z_114_1_4 0
Z_581_1_0 0
Z_581_1_1 0
Z_581_1_2 1
Z_581_1_3 0
Z_581_1_4 0
Z_581_0_0 0
Z_581_0_1 0
Z_581_0_2 0
Z_581_0_3 1
Z_581_0_4 0
Z_97_0_0 0
Z_97_0_1 0
Z_97_0_2 0
Z_97_0_3 0
Z_97_0_4 1
Z_732_0_0 1
Z_732_0_1 0
Z_732_0_2 0
Z_732_0_3 0
Z_732_0_4 0
Z_732_1_0 0
Z_732_1_1 0
Z_732_1_2 1
Z_732_1_3 0
Z_732_1_4 0
Z_674_0_0 1
Z_674_0_1 0
Z_674_0_2 0
Z_674_0_3 0
Z_674_0_4 0
Z_674_1_0 0
Z_674_1_1 0
Z_674_1_2 0
Z_674_1_3 0
Z_674_1_4 1
Z_479_0_0 0
Z_479_0_1 0
Z_479_0_2 0
Z_479_0_3 1
Z_479_0_4 0
Z_698_1_0 0
Z_698_1_1 0
Z_698_1_2 0
Z_698_1_3 0
Z_698_1_4 1
Z_698_3_0 0
Z_698_3_1 0
Z_698_3_2 0
Z_698_3_3 0
Z_698_3_4 1
Z_698_0_0 0
Z_698_0_1 0
Z_698_0_2 0
Z_698_0_3 0
Z_698_0_4 1
Z_698_2_0 0
Z_698_2_1 0
Z_698_2_2 0
Z_698_2_3 1
Z_698_2_4 0
